(set-logic QF_S)
(declare-fun var0 () String)
(declare-fun var1 () String)
(declare-fun var2 () Int)
(declare-fun var3 () String)
(declare-fun var4 () String)
(declare-fun var5 () Int)
(declare-fun var6 () Int)
(declare-fun var7 () Int)
(assert (<= (str.indexof var0 var1 var2) (str.indexof var3 var4 var5)))
(assert (> (str.indexof var3 var0 var6) (str.indexof "4sSkJY\\b" var1 var7)))
(assert (str.contains (str.at var3 var6) (str.at var3 var6)))
(assert (str.contains (str.at var4 var7) (str.replace var0 var1 var0)))
(check-sat)